StudentsNr = 10;
InstructorsNr = 96;
DaysNr = 2;
SlotsPerDay = 20;
AvailabilitySlotsLenght = 5;
RoomNr = 2;
ProgrammNr = 2;
DegreeNr = 2;
RolesNr = 3;
CoursesNr = 4;
InstructorsProgramm = [{1, 2}, {2}, {2}, {1, 2}, {2}, {1, 2}, {2}, {2}, {1, 2}, {2}, {1, 2}, {1, 2}, {1, 2}, {1}, {2}, {1, 2}, {1}, {1}, {1, 2}, {1}, {1, 2}, {1}, {1}, {1}, {2}, {1, 2}, {1, 2}, {1, 2}, {2}, {1}, {1}, {2}, {1, 2}, {2}, {1, 2}, {1, 2}, {1}, {1}, {1, 2}, {1}, {1}, {1}, {1}, {1}, {1}, {2}, {1, 2}, {1, 2}, {2}, {2}, {2}, {1, 2}, {1, 2}, {1}, {1, 2}, {1}, {2}, {2}, {1}, {1}, {1, 2}, {2}, {1}, {1}, {2}, {1, 2}, {2}, {2}, {1}, {2}, {1, 2}, {2}, {1, 2}, {1}, {1, 2}, {1}, {2}, {2}, {2}, {1, 2}, {1, 2}, {1}, {1, 2}, {2}, {1, 2}, {2}, {2}, {2}, {1, 2}, {1, 2}, {2}, {1}, {2}, {2}, {2}, {1}];
InstructorRolesPerProgramm = [|{6, 9, 11, 12, 13, 14, 16, 18, 19, 20, 22, 31, 33, 39, 40, 41, 43, 47, 55, 56, 60, 76, 80, 81, 82, 85, 89, 90, 96}, {1, 6, 9, 13, 14, 16, 18, 20, 21, 23, 24, 28, 30, 40, 43, 44, 47, 48, 53, 55, 61, 64, 66, 69, 74, 81, 83, 89, 96}, {4, 11, 14, 19, 21, 22, 24, 27, 38, 39, 41, 43, 45, 52, 53, 54, 61, 63, 73, 76, 80, 81, 82, 83, 85, 96}|{5, 6, 8, 9, 11, 12, 13, 15, 16, 19, 32, 33, 34, 39, 47, 49, 51, 55, 58, 62, 65, 68, 77, 79, 80, 81, 85, 89, 90, 93, 94, 95}, {1, 2, 5, 6, 9, 10, 13, 16, 21, 25, 28, 29, 47, 48, 49, 51, 53, 55, 58, 61, 65, 66, 68, 78, 79, 81, 83, 86, 89, 91}, {4, 5, 8, 11, 15, 19, 21, 25, 27, 34, 39, 52, 53, 61, 73, 77, 78, 80, 81, 83, 85, 87, 91, 94}|];
InstructorsAvailability = [|0, 0, 1, 1, 1, 1, 1, 1, |1, 1, 1, 1, 1, 1, 0, 1, |0, 1, 1, 1, 0, 1, 1, 1, |0, 1, 1, 1, 1, 1, 1, 1, |0, 1, 0, 1, 1, 1, 1, 1, |0, 1, 1, 1, 1, 1, 1, 1, |1, 1, 1, 1, 1, 1, 0, 1, |1, 1, 1, 1, 0, 1, 1, 1, |1, 0, 1, 1, 1, 1, 1, 1, |0, 0, 0, 1, 1, 1, 1, 0, |1, 1, 1, 1, 1, 1, 1, 0, |0, 1, 1, 1, 1, 1, 1, 0, |1, 1, 1, 1, 1, 1, 0, 0, |0, 1, 1, 1, 1, 1, 1, 1, |0, 0, 0, 0, 0, 0, 1, 1, |0, 0, 0, 0, 1, 1, 1, 1, |1, 1, 1, 0, 0, 1, 1, 1, |0, 1, 1, 1, 1, 1, 1, 1, |1, 1, 1, 1, 1, 0, 0, 1, |1, 1, 1, 1, 1, 1, 1, 1, |1, 1, 1, 1, 0, 1, 1, 1, |1, 1, 1, 1, 0, 0, 1, 1, |1, 1, 1, 1, 1, 1, 1, 1, |0, 1, 1, 1, 1, 1, 1, 1, |0, 1, 1, 0, 0, 1, 1, 1, |1, 1, 1, 1, 1, 1, 1, 1, |0, 0, 0, 1, 1, 1, 1, 1, |0, 0, 1, 1, 1, 1, 1, 1, |0, 1, 1, 1, 1, 1, 1, 1, |1, 1, 1, 1, 1, 1, 1, 1, |1, 0, 1, 1, 1, 1, 1, 1, |0, 1, 1, 1, 1, 1, 1, 1, |1, 0, 0, 0, 0, 1, 1, 1, |0, 1, 0, 1, 1, 1, 1, 1, |0, 1, 0, 0, 0, 0, 1, 0, |0, 1, 1, 1, 1, 1, 0, 1, |0, 1, 0, 1, 1, 1, 1, 1, |1, 1, 1, 1, 1, 1, 1, 0, |0, 1, 1, 1, 1, 1, 1, 1, |1, 1, 1, 1, 0, 0, 1, 1, |1, 1, 1, 1, 1, 1, 1, 1, |0, 0, 1, 1, 1, 1, 1, 1, |0, 1, 0, 1, 1, 1, 1, 1, |1, 1, 1, 1, 1, 1, 1, 1, |0, 1, 0, 0, 1, 1, 1, 1, |0, 0, 1, 1, 1, 1, 1, 1, |0, 1, 1, 1, 1, 1, 1, 1, |0, 1, 0, 0, 0, 1, 1, 0, |1, 1, 1, 0, 1, 1, 1, 1, |1, 1, 1, 1, 1, 0, 1, 1, |0, 1, 1, 1, 1, 1, 1, 1, |0, 0, 1, 1, 1, 1, 1, 0, |1, 1, 1, 0, 0, 1, 0, 0, |0, 1, 1, 1, 1, 1, 1, 0, |0, 0, 1, 1, 1, 1, 1, 1, |0, 1, 1, 1, 1, 1, 0, 0, |0, 0, 1, 1, 1, 0, 1, 0, |1, 1, 1, 1, 1, 1, 1, 1, |1, 1, 1, 1, 1, 1, 1, 1, |1, 1, 1, 1, 1, 1, 1, 1, |1, 1, 1, 1, 1, 1, 1, 0, |1, 1, 1, 1, 1, 1, 1, 1, |1, 1, 1, 1, 1, 1, 0, 0, |0, 1, 1, 1, 1, 1, 1, 1, |1, 0, 1, 1, 1, 0, 0, 1, |1, 1, 0, 0, 0, 1, 1, 1, |1, 1, 1, 1, 1, 1, 0, 1, |1, 1, 0, 0, 0, 1, 1, 1, |0, 0, 1, 1, 0, 0, 1, 1, |1, 1, 1, 1, 0, 0, 1, 1, |0, 0, 1, 1, 1, 1, 1, 1, |1, 1, 1, 1, 1, 1, 1, 1, |0, 0, 0, 0, 1, 1, 1, 1, |0, 1, 0, 1, 1, 0, 1, 1, |1, 0, 0, 1, 1, 1, 1, 1, |0, 1, 1, 1, 1, 1, 1, 1, |1, 1, 1, 1, 1, 1, 1, 0, |1, 1, 1, 1, 1, 1, 1, 1, |0, 1, 1, 0, 0, 1, 1, 1, |1, 1, 1, 0, 0, 1, 1, 1, |1, 1, 1, 1, 1, 1, 1, 1, |1, 1, 1, 1, 1, 1, 1, 1, |1, 1, 1, 0, 1, 1, 1, 1, |1, 1, 0, 0, 0, 1, 1, 1, |1, 1, 1, 1, 1, 1, 1, 1, |0, 0, 1, 1, 1, 1, 0, 1, |1, 1, 1, 1, 1, 1, 1, 1, |0, 0, 1, 1, 1, 1, 1, 1, |0, 1, 1, 1, 1, 1, 1, 1, |1, 0, 0, 0, 1, 1, 0, 1, |1, 1, 1, 1, 1, 0, 1, 1, |1, 1, 1, 1, 1, 1, 1, 1, |1, 1, 1, 1, 1, 1, 1, 1, |1, 1, 1, 1, 1, 0, 1, 1, |1, 0, 0, 0, 1, 1, 1, 0, |1, 1, 1, 1, 0, 1, 1, 1|];
StudentsProgramm = [2, 1, 2, 1, 1, 1, 1, 2, 2, 1];
StudentsDegree = [2, 2, 1, 1, 1, 2, 2, 1, 1, 1];
StudentsSupervisorId = [12, 36, 73, 19, 9, 40, 56, 73, 51, 90];
StudentsCourseIds = [{2, 3, 4}, {1, 2, 4}, {}, {}, {}, {1, 3, 4}, {2, 3, 4}, {}, {}, {}];
StudentsAvailability = [|1, 1, 1, 1, 1, 1, 1, 1, |0, 0, 1, 0, 1, 1, 1, 1, |0, 0, 0, 0, 1, 1, 1, 1, |0, 1, 1, 1, 1, 1, 1, 1, |1, 0, 1, 1, 1, 1, 0, 0, |0, 1, 1, 1, 1, 1, 1, 1, |0, 1, 1, 1, 1, 1, 0, 0, |1, 1, 1, 1, 1, 1, 1, 1, |0, 1, 1, 1, 1, 1, 1, 1, |1, 1, 1, 1, 1, 1, 1, 1|];
TheoryticalMinCard = [0, 0, 0, 0, 0, 0, 0, 0, 0, 0];
CoursesInstructorIds = [{2, 7, 13, 19, 27, 30, 34, 41, 49, 59, 67, 68, 73, 93}, {5, 6, 9, 13, 16, 21, 22, 29, 34, 38, 42, 45, 49, 51, 55, 61, 67, 68, 71, 76, 79, 80, 81, 82, 83, 84, 87, 89, 90, 92, 93}, {1, 2, 3, 4, 5, 6, 7, 8, 11, 13, 14, 15, 18, 19, 20, 23, 24, 25, 27, 30, 31, 34, 35, 37, 39, 42, 47, 48, 49, 52, 54, 55, 56, 57, 58, 62, 66, 67, 69, 70, 71, 72, 73, 74, 76, 77, 78, 80, 81, 84, 88, 90, 91}, {2, 8, 12, 15, 19, 27, 35, 36, 39, 40, 44, 49, 50, 52, 53, 55, 56, 58, 63, 66, 67, 73, 74, 76, 78, 81, 83, 84, 85, 92, 93, 95}];
RolesDemands = [21, 22, 12];
RolesContinuity = [2, 3];
ExamLen = [2, 2, 2, 2, 2, 2, 2, 2, 2, 2];
LunchTsMinLen = 2;
LunchStarts = [6..14, 28..35];
SupervisorAvailable = 5;
OptimalLunchLenght = [3, 2];
OptimalStartTs = [0, 1];
OptimalFinishTs = [1, 19];
MinimizeRooms = 100;
RolesSoftContinuity = [|1, 2, 3|4, 2, 1|];
SameDegreeInRoom = 0;
Mergeability = 1;
